100
    1     4     4
    2    46    46
    3    48    48
    4    19    19
    5     4     4
    6    20    20
    7    13    13
    8    50    50
    9    28    28
   10     6     6
   11    44    44
   12    41    41
   13     1     1
   14    20    20
   15     8     8
   16    10    10
   17    19    19
   18    45    45
   19    20    20
   20    33    33
   21     8     8
   22    45    45
   23    33    33
   24    45    45
   25    46    46
   26    13    13
   27    16    16
   28    42    42
   29    11    11
   30    21    21
   31     1     1
   32     2     2
   33    31    31
   34     8     8
   35    46    46
   36    32    32
   37    47    47
   38    37    37
   39     8     8
   40     6     6
   41    37    37
   42    20    20
   43    44    44
   44     5     5
   45     6     6
   46     2     2
   47    31    31
   48    14    14
   49    15    15
   50    43    43
   51    32    32
   52    13    13
   53    20    20
   54    38    38
   55    36    36
   56    20    20
   57    10    10
   58    32    32
   59    21    21
   60    11    11
   61    48    48
   62    43    43
   63    50    50
   64    46    46
   65    40    40
   66    22    22
   67    17    17
   68    47    47
   69    44    44
   70    18    18
   71     9     9
   72    35    35
   73    48    48
   74    41    41
   75     3     3
   76    37    37
   77    10    10
   78    39    39
   79     9     9
   80     8     8
   81     1     1
   82    20    20
   83     2     2
   84    42    42
   85    30    30
   86    18    18
   87    34    34
   88    27    27
   89    31    31
   90    23    23
   91    47    47
   92    25    25
   93     8     8
   94    13    13
   95    26    26
   96     1     1
   97     9     9
   98    43    43
   99    18    18
  100    36    36
831
